(set-logic QF_S)
(declare-fun var0 () String)
(declare-fun var1 () String)
(declare-fun var2 () String)
(declare-fun var3 () String)
(declare-fun var4 () String)
(declare-fun var5 () String)
(declare-fun var6 () String)
(declare-fun var7 () String)
(declare-fun var8 () String)
(declare-fun var9 () String)
(declare-fun var10 () String)
(declare-fun var11 () String)
(declare-fun var12 () String)
(declare-fun var13 () String)
(declare-fun var14 () String)
(declare-fun var15 () String)
(declare-fun var16 () String)
(declare-fun var17 () String)
(declare-fun var18 () String)
(declare-fun var19 () String)
(declare-fun var20 () String)
(declare-fun var21 () String)
(declare-fun var22 () String)
(declare-fun var23 () String)
(declare-fun var24 () String)
(declare-fun var25 () String)
(declare-fun var26 () String)
(declare-fun var27 () String)
(declare-fun var28 () String)
(declare-fun var29 () String)
(declare-fun var30 () String)
(declare-fun var31 () String)
(declare-fun var32 () String)
(declare-fun var33 () String)
(declare-fun var34 () String)
(declare-fun var35 () String)
(declare-fun var36 () String)
(declare-fun var37 () String)
(declare-fun var38 () String)
(declare-fun var39 () String)
(declare-fun var40 () String)
(declare-fun var41 () String)
(declare-fun var42 () String)
(declare-fun var43 () String)
(declare-fun var44 () String)
(declare-fun var45 () String)
(declare-fun var46 () String)
(declare-fun var47 () String)
(declare-fun var48 () String)
(declare-fun var49 () String)
(declare-fun var50 () String)
(declare-fun var51 () String)
(declare-fun var52 () String)
(declare-fun var53 () String)
(declare-fun var54 () String)
(declare-fun var55 () String)
(declare-fun var56 () String)
(declare-fun var57 () String)
(declare-fun var58 () String)
(declare-fun var59 () String)
(declare-fun var60 () String)
(assert (= var0 (Concat var1 var2)))
(assert (= var2 (Concat var3 var4)))
(assert (= var4 (Concat var5 var6)))
(assert (= var6 (Concat var7 var8)))
(assert (= var8 (Concat var9 var10)))
(assert (= var10 (Concat var11 var12)))
(assert (= var12 (Concat var13 var14)))
(assert (= var14 (Concat var15 var16)))
(assert (= var16 (Concat var17 var18)))
(assert (= var18 (Concat var19 var20)))
(assert (= var20 (Concat var21 var22)))
(assert (= var22 (Concat var23 var24)))
(assert (= var24 (Concat var25 var26)))
(assert (= var26 (Concat var27 var28)))
(assert (= var28 (Concat var29 var30)))
(assert (= var30 (Concat var31 var32)))
(assert (= var32 (Concat var33 var34)))
(assert (= var34 (Concat var35 var36)))
(assert (= var36 (Concat var37 var38)))
(assert (= var38 (Concat var39 var40)))
(assert (= var40 (Concat var41 var42)))
(assert (= var42 (Concat var43 var44)))
(assert (= var44 (Concat var45 var46)))
(assert (= var46 (Concat var47 var48)))
(assert (= var48 (Concat var49 var50)))
(assert (= var50 (Concat var51 var52)))
(assert (= var52 (Concat var53 var54)))
(assert (= var54 (Concat var55 var56)))
(assert (= var56 (Concat var57 var58)))
(assert (= var58 (Concat var59 var60)))
(assert (= var0 "solution"))
(assert (= "F" (CharAt var45 108)))
(assert (= "I" (CharAt var2 90)))
(assert (= "t" (CharAt var0 167)))
(assert (= "{" (CharAt var45 251)))
(assert (= "@" (CharAt var14 361)))
(assert (= "$" (CharAt var41 312)))
(assert (= "5" (CharAt var45 798)))
(assert (= "}" (CharAt var3 56)))
(assert (= "k" (CharAt var32 631)))
(assert (= "H" (CharAt var18 709)))
(assert (= "~" (CharAt var27 853)))
(assert (= "-" (CharAt var27 128)))
(assert (= "~" (CharAt var35 322)))
(assert (= "9" (CharAt var13 424)))
(assert (= "D" (CharAt var18 396)))
(assert (= "#" (CharAt var14 517)))
(assert (= "." (CharAt var31 521)))
(assert (= "/" (CharAt var0 658)))
(assert (= "e" (CharAt var17 776)))
(assert (= "J" (CharAt var24 622)))
(assert (= "y" (CharAt var17 97)))
(assert (= "m" (CharAt var15 707)))
(assert (= "F" (CharAt var52 241)))
(assert (= "d" (CharAt var21 472)))
(assert (= "y" (CharAt var24 653)))
(assert (= "$" (CharAt var4 101)))
(assert (= "." (CharAt var49 966)))
(assert (= "\"" (CharAt var58 531)))
(assert (= "D" (CharAt var7 13)))
(assert (= "9" (CharAt var23 850)))
(assert (= "#" (CharAt var23 682)))
(assert (= "'" (CharAt var46 325)))
(assert (= "Z" (CharAt var45 549)))
(assert (= "j" (CharAt var47 765)))
(assert (= "9" (CharAt var57 167)))
(assert (= "{" (CharAt var45 170)))
(assert (= "D" (CharAt var55 753)))
(assert (= "F" (CharAt var11 874)))
(assert (= "G" (CharAt var45 296)))
(assert (= "5" (CharAt var36 64)))
(assert (= "W" (CharAt var10 296)))
(assert (= "`" (CharAt var4 316)))
(assert (= "t" (CharAt var1 904)))
(assert (= "<" (CharAt var57 28)))
(assert (= "Y" (CharAt var30 593)))
(assert (= "^" (CharAt var59 829)))
(assert (= "*" (CharAt var9 264)))
(assert (= "G" (CharAt var52 951)))
(assert (= "9" (CharAt var48 62)))
(assert (= "7" (CharAt var60 220)))
(assert (= "=" (CharAt var57 756)))
(assert (= "n" (CharAt var40 725)))
(assert (= "{" (CharAt var56 373)))
(assert (= "M" (CharAt var59 227)))
(assert (= "y" (CharAt var25 42)))
(assert (= "$" (CharAt var1 302)))
(assert (= "2" (CharAt var57 897)))
(assert (= "y" (CharAt var38 698)))
(assert (= "D" (CharAt var18 223)))
(assert (= "\"" (CharAt var31 40)))
(assert (= "Y" (CharAt var28 618)))
(assert (= "^" (CharAt var22 141)))
(assert (= "n" (CharAt var29 708)))
(assert (= "z" (CharAt var8 778)))
(assert (= "P" (CharAt var20 374)))
(assert (= "<" (CharAt var43 423)))
(assert (= "l" (CharAt var31 641)))
(assert (= "_" (CharAt var60 116)))
(assert (= "R" (CharAt var13 765)))
(assert (= "r" (CharAt var27 832)))
(assert (= "k" (CharAt var22 883)))
(assert (= "^" (CharAt var18 841)))
(assert (= "." (CharAt var20 463)))
(assert (= ";" (CharAt var27 594)))
(assert (= "w" (CharAt var40 273)))
(assert (= ";" (CharAt var12 732)))
(assert (= "<" (CharAt var30 850)))
(assert (= "Y" (CharAt var0 20)))
(assert (= "X" (CharAt var30 205)))
(assert (= "}" (CharAt var43 869)))
(assert (= "8" (CharAt var56 415)))
(assert (= "*" (CharAt var14 216)))
(assert (= "]" (CharAt var8 199)))
(assert (= "9" (CharAt var20 159)))
(assert (= "o" (CharAt var19 36)))
(assert (= "b" (CharAt var11 908)))
(assert (= "0" (CharAt var47 109)))
(assert (= "c" (CharAt var22 74)))
(assert (= "-" (CharAt var22 662)))
(assert (= "V" (CharAt var14 528)))
(assert (= "3" (CharAt var12 664)))
(assert (= "$" (CharAt var52 578)))
(assert (= "B" (CharAt var3 302)))
(assert (= ">" (CharAt var54 95)))
(assert (= "0" (CharAt var17 764)))
(assert (= "_" (CharAt var28 714)))
(assert (= "S" (CharAt var59 718)))
(assert (= "K" (CharAt var8 102)))
(assert (= "N" (CharAt var14 167)))
(assert (= "$" (CharAt var5 681)))
(assert (= "3" (CharAt var10 800)))
(assert (= "~" (CharAt var29 443)))
(assert (= "e" (CharAt var20 913)))
(assert (= "(" (CharAt var7 270)))
(assert (= "8" (CharAt var24 812)))
(assert (= "\\" (CharAt var12 457)))
(assert (= "$" (CharAt var4 436)))
(assert (= "N" (CharAt var39 70)))
(assert (= ":" (CharAt var4 376)))
(assert (= "n" (CharAt var51 625)))
(assert (= "|" (CharAt var18 750)))
(assert (= "N" (CharAt var14 760)))
(assert (= "-" (CharAt var37 525)))
(assert (= "{" (CharAt var52 689)))
(assert (= "V" (CharAt var41 360)))
(assert (= "J" (CharAt var5 526)))
(assert (= ">" (CharAt var41 442)))
(assert (= "p" (CharAt var3 201)))
(assert (= "]" (CharAt var20 408)))
(assert (= "[" (CharAt var9 688)))
(assert (= "7" (CharAt var26 140)))
(check-sat)